sat
(model
  (define-fun |f$unknown:4|
    ( (v_0 Int) (v_1 Int) ) Bool
    (>= v_0 (- 3))
  )
  (define-fun |incr$unknown:6|
    ( (v_0 Int) (v_1 Int) ) Bool
    (= (+ v_0 (- 1) (* (- 1) v_1)) 0)
  )
  (define-fun |f$unknown:2|
    ( (v_0 Int) (v_1 Int) ) Bool
    (or (>= v_1 2) (>= (* (- 1) v_1) 4) (|f$unknown:4| v_0 v_1))
  )
)
